Problem:    
Rows:       260
Columns:    89 (72 integer, 72 binary)
Non-zeros:  974
Status:     INTEGER OPTIMAL
Objective:  value = 175.906979 (MINimum)

   No.   Row name        Activity     Lower bound   Upper bound
------ ------------    ------------- ------------- -------------
     1 r.5                   175.907             0               
     2 r.6                   78.7976      -932.468               
     3 r.7                   1175.91             0               
     4 r.8                  -936.682      -960.466               
     5 r.9                   1175.91             0               
     6 r.10                 -923.925      -932.651               
     7 r.11                  175.907             0               
     8 r.12                  76.0751      -961.357               
     9 r.13                  175.907             0               
    10 r.14                  78.7976      -995.536               
    11 r.15                  1175.91             0               
    12 r.16                 -978.711      -995.072               
    13 r.17                  175.907             0               
    14 r.18                  78.7976      -991.523               
    15 r.19                  1175.91             0               
    16 r.20                 -926.419      -992.231               
    17 r.21                  175.907             0               
    18 r.22                  145.213      -968.616               
    19 r.23                  1175.91             0               
    20 r.24                 -854.787      -980.751               
    21 r.25                  175.907             0               
    22 r.26                  14.1712       -997.99               
    23 r.27                  1175.91             0               
    24 r.28                 -996.262      -996.262               
    25 r.29                  1175.91             0               
    26 r.30                 -824.093      -900.168               
    27 r.31                  175.907             0               
    28 r.32                  175.907      -865.417               
    29 r.33                  175.907             0               
    30 r.34                  175.907      -930.627               
    31 r.35                  1175.91             0               
    32 r.36                 -824.093      -969.306               
    33 r.37                        1             1             = 
    34 r.38                        1             1             = 
    35 r.39                        1             1             = 
    36 r.40                        1             1             = 
    37 r.41                        1             1             = 
    38 r.42                        1             1             = 
    39 r.43                        1             1             = 
    40 r.44                        1             1             = 
    41 r.45                     1001             2               
    42 r.46                    -1001         -1001               
    43 r.47                     2000      -932.651               
    44 r.48                     1001             2               
    45 r.49                    -1001         -1001               
    46 r.50                  2010.26      -961.357               
    47 r.51                     1000             2               
    48 r.52                    -1000         -1001               
    49 r.53                  2002.72      -995.536               
    50 r.54                        2             2               
    51 r.55                       -2         -1001               
    52 r.56                 -44.5225      -995.072               
    53 r.57                     1000             2               
    54 r.58                    -1000         -1001               
    55 r.59                  2002.72      -991.523               
    56 r.60                        2             2               
    57 r.61                       -2         -1001               
    58 r.62                 -992.231      -992.231               
    59 r.63                     1000             2               
    60 r.64                    -1000         -1001               
    61 r.65                  2069.14      -968.616               
    62 r.66                        2             2               
    63 r.67                       -2         -1001               
    64 r.68                 -920.599      -980.751               
    65 r.69                  70.0715      -932.468               
    66 r.70                 -945.409      -960.466               
    67 r.71                  70.0715      -932.468               
    68 r.72                 -945.409      -960.466               
    69 r.73                 -900.168      -900.168               
    70 r.74                  99.8319      -865.417               
    71 r.75                 -889.905      -900.168               
    72 r.76                  110.095      -865.417               
    73 r.77                  99.8319      -930.627               
    74 r.78                 -900.168      -969.306               
    75 r.79                  110.095      -930.627               
    76 r.80                 -889.905      -969.306               
    77 r.81                     1001             2               
    78 r.82                    -1001         -1001               
    79 r.83                  2002.72        67.532               
    80 r.84                     1001             2               
    81 r.85                    -1001         -1001               
    82 r.86                  1987.24       39.5339               
    83 r.87                     1001             2               
    84 r.88                    -1001         -1001               
    85 r.89                  2002.72      -995.536               
    86 r.90                     1001             2               
    87 r.91                    -1001         -1001               
    88 r.92                  1945.21      -995.072               
    89 r.93                     1001             2               
    90 r.94                    -1001         -1001               
    91 r.95                  2002.72      -991.523               
    92 r.96                     1001             2               
    93 r.97                    -1001         -1001               
    94 r.98                  1997.51      -992.231               
    95 r.99                     1001             2               
    96 r.100                   -1001         -1001               
    97 r.101                 2069.14      -968.616               
    98 r.102                    1001             2               
    99 r.103                   -1001         -1001               
   100 r.104                 2069.14      -980.751               
   101 r.105                -932.651      -932.651               
   102 r.106                 67.3489      -961.357               
   103 r.107                -932.651      -932.651               
   104 r.108                 67.3489      -961.357               
   105 r.109                -900.168      -900.168               
   106 r.110                 99.8319      -865.417               
   107 r.111                -900.168      -900.168               
   108 r.112                 99.8319      -865.417               
   109 r.113                    1001             2               
   110 r.114                   -1001         -1001               
   111 r.115                 2099.83      -930.627               
   112 r.116                    1001             2               
   113 r.117                   -1001         -1001               
   114 r.118                 2099.83      -969.306               
   115 r.119                    1000             2               
   116 r.120                   -1000         -1001               
   117 r.121                 2002.72        67.532               
   118 r.122                       2             2               
   119 r.123                      -2         -1001               
   120 r.124                 39.5339       39.5339               
   121 r.125                    1001             2               
   122 r.126                   -1001         -1001               
   123 r.127                    2000       67.3489               
   124 r.128                    1001             2               
   125 r.129                   -1001         -1001               
   126 r.130                 2052.29       38.6425               
   127 r.131                    1000             2               
   128 r.132                   -1000         -1001               
   129 r.133                 2002.72      -991.523               
   130 r.134                       2             2               
   131 r.135                      -2         -1001               
   132 r.136                -950.203      -992.231               
   133 r.137                    1000             2               
   134 r.138                   -1000         -1001               
   135 r.139                 2069.14      -968.616               
   136 r.140                       2             2               
   137 r.141                      -2         -1001               
   138 r.142                -878.571      -980.751               
   139 r.143                 70.0715      -995.536               
   140 r.144                -987.437      -995.072               
   141 r.145                 70.0715      -995.536               
   142 r.146                -987.437      -995.072               
   143 r.147                -900.168      -900.168               
   144 r.148                 99.8319      -865.417               
   145 r.149                -847.877      -900.168               
   146 r.150                 152.123      -865.417               
   147 r.151                 99.8319      -930.627               
   148 r.152                -900.168      -969.306               
   149 r.153                 152.123      -930.627               
   150 r.154                -847.877      -969.306               
   151 r.155                    1000             2               
   152 r.156                   -1000         -1001               
   153 r.157                 2002.72        67.532               
   154 r.158                       2             2               
   155 r.159                      -2         -1001               
   156 r.160                 987.243       39.5339               
   157 r.161                    1001             2               
   158 r.162                   -1001         -1001               
   159 r.163                    2000       67.3489               
   160 r.164                    1001             2               
   161 r.165                   -1001         -1001               
   162 r.166                    2000       38.6425               
   163 r.167                    1000             2               
   164 r.168                   -1000         -1001               
   165 r.169                 2002.72       4.46448               
   166 r.170                       2             2               
   167 r.171                      -2         -1001               
   168 r.172                 945.214       4.92819               
   169 r.173                    1000             2               
   170 r.174                   -1000         -1001               
   171 r.175                 2069.14      -968.616               
   172 r.176                       2             2               
   173 r.177                      -2         -1001               
   174 r.178                -930.862      -980.751               
   175 r.179                 70.0715      -991.523               
   176 r.180                -935.145      -992.231               
   177 r.181                 70.0715      -991.523               
   178 r.182                -935.145      -992.231               
   179 r.183                -900.168      -900.168               
   180 r.184                 99.8319      -865.417               
   181 r.185                -900.168      -900.168               
   182 r.186                 99.8319      -865.417               
   183 r.187                    1000             2               
   184 r.188                   -1000         -1001               
   185 r.189                 2099.83      -930.627               
   186 r.190                       2             2               
   187 r.191                      -2         -1001               
   188 r.192                -900.168      -969.306               
   189 r.193                    1000             2               
   190 r.194                   -1000         -1001               
   191 r.195                 1933.58        67.532               
   192 r.196                       2             2               
   193 r.197                      -2         -1001               
   194 r.198                 918.105       39.5339               
   195 r.199                    1001             2               
   196 r.200                   -1001         -1001               
   197 r.201                 1930.86       67.3489               
   198 r.202                    1001             2               
   199 r.203                   -1001         -1001               
   200 r.204                 1930.86       38.6425               
   201 r.205                    1000             2               
   202 r.206                   -1000         -1001               
   203 r.207                 1933.58       4.46448               
   204 r.208                       2             2               
   205 r.209                      -2         -1001               
   206 r.210                 876.077       4.92819               
   207 r.211                    1000             2               
   208 r.212                   -1000         -1001               
   209 r.213                 1933.58        8.4773               
   210 r.214                       2             2               
   211 r.215                      -2         -1001               
   212 r.216                 928.368       7.76894               
   213 r.217                 136.487      -968.616               
   214 r.218                -863.513      -980.751               
   215 r.219                 136.487      -968.616               
   216 r.220                -863.513      -980.751               
   217 r.221                    1001             2               
   218 r.222                   -1001         -1001               
   219 r.223                 2030.69      -900.168               
   220 r.224                    1001             2               
   221 r.225                   -1001         -1001               
   222 r.226                 2030.69      -865.417               
   223 r.227                 30.6943      -930.627               
   224 r.228                -969.306      -969.306               
   225 r.229                 30.6943      -930.627               
   226 r.230                -969.306      -969.306               
   227 r.231                -832.819      -900.168               
   228 r.232                 167.181      -865.417               
   229 r.233                -832.819      -900.168               
   230 r.234                 167.181      -865.417               
   231 r.235                    1001             2               
   232 r.236                   -1001         -1001               
   233 r.237                 1969.31       31.3842               
   234 r.238                    1001             2               
   235 r.239                   -1001         -1001               
   236 r.240                 1969.31       19.2492               
   237 r.241                    1001             2               
   238 r.242                   -1001         -1001               
   239 r.243                    2000      -930.627               
   240 r.244                    1001             2               
   241 r.245                   -1001         -1001               
   242 r.246                    2000      -969.306               
   243 r.247                    1001             2               
   244 r.248                   -1001         -1001               
   245 r.249                 1900.17       67.3489               
   246 r.250                    1001             2               
   247 r.251                   -1001         -1001               
   248 r.252                 1900.17       38.6425               
   249 r.253                    1000             2               
   250 r.254                   -1000         -1001               
   251 r.255                 1902.89        8.4773               
   252 r.256                       2             2               
   253 r.257                      -2         -1001               
   254 r.258                 897.674       7.76894               
   255 r.259                    1001             2               
   256 r.260                   -1001         -1001               
   257 r.261                    2000       99.8319               
   258 r.262                    1001             2               
   259 r.263                   -1001         -1001               
   260 r.264                    2000       134.583               

   No. Column name       Activity     Lower bound   Upper bound
------ ------------    ------------- ------------- -------------
     1 tt                    175.907             0               
     2 s_1_1        *              0             0             1 
     3 t_1_1                 99.8319             0               
     4 s_1_8        *              0             0             1 
     5 s_1_7        *              1             0             1 
     6 s_2_1        *              1             0             1 
     7 t_2_1                 110.095             0               
     8 s_2_8        *              1             0             1 
     9 s_2_7        *              0             0             1 
    10 s_1_2        *              1             0             1 
    11 t_1_2                 99.8319             0               
    12 s_2_2        *              0             0             1 
    13 t_2_2                 99.8319             0               
    14 s_1_3        *              0             0             1 
    15 t_1_3                 99.8319             0               
    16 s_2_3        *              1             0             1 
    17 t_2_3                 152.123             0               
    18 s_1_4        *              0             0             1 
    19 t_1_4                 99.8319             0               
    20 s_2_4        *              1             0             1 
    21 t_2_4                 99.8319             0               
    22 s_1_5        *              0             0             1 
    23 t_1_5                 30.6943             0               
    24 s_2_5        *              1             0             1 
    25 t_2_5                 30.6943             0               
    26 s_1_6        *              0             0             1 
    27 t_1_6                 167.181             0               
    28 s_2_6        *              1             0             1 
    29 t_2_6                 167.181             0               
    30 t_1_7                       0             0               
    31 t_2_7                       0             0               
    32 t_1_8                       0             0               
    33 t_2_8                       0             0               
    34 r_1_1_2      *              1             0             1 
    35 u_1_1_2      *              0             0             1 
    36 r_2_1_2      *              1             0             1 
    37 u_2_1_2      *              0             0             1 
    38 r_1_1_3      *              1             0             1 
    39 u_1_1_3      *              0             0             1 
    40 r_2_1_3      *              0             0             1 
    41 u_2_1_3      *              0             0             1 
    42 r_1_1_4      *              1             0             1 
    43 u_1_1_4      *              0             0             1 
    44 r_2_1_4      *              0             0             1 
    45 u_2_1_4      *              1             0             1 
    46 r_1_1_5      *              1             0             1 
    47 u_1_1_5      *              0             0             1 
    48 r_2_1_5      *              0             0             1 
    49 u_2_1_5      *              1             0             1 
    50 r_1_2_3      *              1             0             1 
    51 u_1_2_3      *              0             0             1 
    52 r_2_2_3      *              1             0             1 
    53 u_2_2_3      *              0             0             1 
    54 r_1_2_4      *              1             0             1 
    55 u_1_2_4      *              0             0             1 
    56 r_2_2_4      *              1             0             1 
    57 u_2_2_4      *              0             0             1 
    58 r_1_2_5      *              1             0             1 
    59 u_1_2_5      *              0             0             1 
    60 r_2_2_5      *              1             0             1 
    61 u_2_2_5      *              0             0             1 
    62 r_1_2_8      *              1             0             1 
    63 u_1_2_8      *              0             0             1 
    64 r_2_2_8      *              1             0             1 
    65 u_2_2_8      *              0             0             1 
    66 r_1_3_4      *              1             0             1 
    67 u_1_3_4      *              0             0             1 
    68 r_2_3_4      *              0             0             1 
    69 u_2_3_4      *              1             0             1 
    70 r_1_3_5      *              1             0             1 
    71 u_1_3_5      *              0             0             1 
    72 r_2_3_5      *              0             0             1 
    73 u_2_3_5      *              1             0             1 
    74 r_1_4_5      *              1             0             1 
    75 u_1_4_5      *              0             0             1 
    76 r_2_4_5      *              0             0             1 
    77 u_2_4_5      *              1             0             1 
    78 r_1_4_8      *              1             0             1 
    79 u_1_4_8      *              0             0             1 
    80 r_2_4_8      *              0             0             1 
    81 u_2_4_8      *              1             0             1 
    82 r_1_5_7      *              1             0             1 
    83 u_1_5_7      *              0             0             1 
    84 r_2_5_7      *              1             0             1 
    85 u_2_5_7      *              0             0             1 
    86 r_1_7_8      *              1             0             1 
    87 u_1_7_8      *              0             0             1 
    88 r_2_7_8      *              1             0             1 
    89 u_2_7_8      *              0             0             1 

Integer feasibility conditions:

KKT.PE: max.abs.err = 2.27e-13 on row 6
        max.rel.err = 1.10e-16 on row 20
        High quality

KKT.PB: max.abs.err = 1.14e-13 on row 24
        max.rel.err = 1.75e-16 on row 120
        High quality

End of output
